p cnf 21 12
1 9 11 15 -16 17 19 -10 -2 0
4 7 13 -18 -19 -14 -12 -8 -6 -3 0
9 13 -18 -16 -14 -10 -6 -4 0
3 -12 20 8 -7 -19 -18 0
-14 5 -6 -20 13 0
-14 5 -6 -20 -4 0
-14 -4 5 -20 13 0
-13 -6 -20 -4 14 0
3 5 7 -19 21 -8 -6 -4 0
-21 -12 13 -18 0
-14 -21 -12 13 0
-13 -21 14 -18 0
